objective value:                     1.13004169888556
x(0,9,1)                                            1 	(obj:0)
x(1,12,0)                                           1 	(obj:0)
x(2,4,0)                                            1 	(obj:0)
x(3,10,1)                                           1 	(obj:0)
x(4,1,0)                                            1 	(obj:0)
x(9,3,1)                                            1 	(obj:0)
x(10,0,1)                                           1 	(obj:0)
x(12,2,0)                                           1 	(obj:0)
xc(0,3)                                             1 	(obj:0)
xc(1,2)                                             1 	(obj:0)
xc(2,1)                                             1 	(obj:0)
xc(4,0)                                             1 	(obj:0)
u(1,0)                               0.94067761103986 	(obj:0)
u(3,1)                               1.04032615858724 	(obj:0)
u(4,0)                              0.560586919084181 	(obj:0)
u(6,0)                               1.13004169888556 	(obj:0)
u(7,0)                               1.13004169888556 	(obj:0)
u(8,1)                               1.13004169888556 	(obj:0)
u(9,1)                               0.67189453937183 	(obj:0)
u(10,0)                              1.13004169888556 	(obj:0)
u(10,1)                              1.13004169888556 	(obj:0)
u(11,0)                              1.13004169888556 	(obj:0)
u(11,1)                              1.13004169888556 	(obj:0)
u(12,0)                              1.13004169888556 	(obj:0)
u(12,1)                              1.13004169888556 	(obj:0)
u(13,0)                              1.13004169888556 	(obj:0)
u(13,1)                              1.13004169888556 	(obj:0)
u(14,0)                              1.13004169888556 	(obj:0)
u(14,1)                              1.13004169888556 	(obj:0)
u(15,0)                              1.13004169888556 	(obj:0)
u(15,1)                              1.13004169888556 	(obj:0)
u(16,0)                              1.13004169888556 	(obj:0)
u(16,1)                              1.13004169888556 	(obj:0)
u(17,0)                              1.13004169888556 	(obj:0)
u(17,1)                              1.13004169888556 	(obj:0)
u(18,0)                              1.13004169888556 	(obj:0)
u(18,1)                              1.13004169888556 	(obj:0)
u(19,0)                              1.13004169888556 	(obj:0)
u(19,1)                              1.13004169888556 	(obj:0)
f(0,3,0)                                            1 	(obj:0)
f(0,3,1)                                            1 	(obj:0)
f(0,9,0)                                            1 	(obj:0)
f(0,9,1)                                            1 	(obj:0)
f(0,9,2)                                            1 	(obj:0)
f(0,9,3)                                            1 	(obj:0)
f(0,9,4)                                            1 	(obj:0)
f(1,2,0)                                            1 	(obj:0)
f(1,12,1)                                           1 	(obj:0)
f(1,12,3)                                           1 	(obj:0)
f(2,1,0)                                            1 	(obj:0)
f(2,4,1)                                            1 	(obj:0)
f(2,4,2)                                            1 	(obj:0)
f(2,4,3)                                            1 	(obj:0)
f(3,10,0)                                           1 	(obj:0)
f(3,10,1)                                           1 	(obj:0)
f(3,10,3)                                           1 	(obj:0)
f(4,0,1)                                            1 	(obj:0)
f(4,0,2)                                            1 	(obj:0)
f(4,0,4)                                            1 	(obj:0)
f(4,1,3)                                            1 	(obj:0)
f(10,0,0)                                           1 	(obj:0)
f(10,0,1)                                           1 	(obj:0)
f(10,0,3)                                           1 	(obj:0)
f(12,2,1)                                           1 	(obj:0)
f(12,2,3)                                           1 	(obj:0)
z_r(0,)                              1.13004169888556 	(obj:0)
z_r(1,)                              1.13004169888556 	(obj:0)
z                                    1.13004169888556 	(obj:1)
